c strEdges: 189  randomEdges: 441 
c degrees:  2  3 
c girth: 10 max: 8.032766  
c Hgirth mixed MAXCUT instance
c generated from an undirected graph
c to solve unweighted MaxCut
p cnf 140 1260
56 121 0
-56 -121 0
56 1 0
-56 -1 0
56 25 0
-56 -25 0
120 48 0
-120 -48 0
120 38 0
-120 -38 0
120 9 0
-120 -9 0
13 83 0
-13 -83 0
13 43 0
-13 -43 0
118 99 0
-118 -99 0
118 29 0
-118 -29 0
118 75 0
-118 -75 0
68 25 0
-68 -25 0
68 83 0
-68 -83 0
28 52 0
-28 -52 0
28 3 0
-28 -3 0
28 18 0
-28 -18 0
37 80 0
-37 -80 0
37 41 0
-37 -41 0
30 102 0
-30 -102 0
30 128 0
-30 -128 0
89 97 0
-89 -97 0
89 116 0
-89 -116 0
89 119 0
-89 -119 0
76 98 0
-76 -98 0
76 126 0
-76 -126 0
67 18 0
-67 -18 0
67 87 0
-67 -87 0
67 106 0
-67 -106 0
58 31 0
-58 -31 0
58 34 0
-58 -34 0
58 83 0
-58 -83 0
45 128 0
-45 -128 0
45 112 0
-45 -112 0
12 126 0
-12 -126 0
12 23 0
-12 -23 0
12 1 0
-12 -1 0
127 119 0
-127 -119 0
127 90 0
-127 -90 0
14 24 0
-14 -24 0
14 92 0
-14 -92 0
14 122 0
-14 -122 0
11 112 0
-11 -112 0
11 64 0
-11 -64 0
11 48 0
-11 -48 0
10 64 0
-10 -64 0
10 99 0
-10 -99 0
131 90 0
-131 -90 0
131 114 0
-131 -114 0
131 48 0
-131 -48 0
125 134 0
-125 -134 0
125 24 0
-125 -24 0
125 72 0
-125 -72 0
32 129 0
-32 -129 0
32 103 0
-32 -103 0
32 132 0
-32 -132 0
20 29 0
-20 -29 0
20 42 0
-20 -42 0
20 47 0
-20 -47 0
53 72 0
-53 -72 0
53 114 0
-53 -114 0
53 73 0
-53 -73 0
7 103 0
-7 -103 0
7 105 0
-7 -105 0
7 47 0
-7 -47 0
8 44 0
-8 -44 0
8 117 0
-8 -117 0
8 122 0
-8 -122 0
22 122 0
-22 -122 0
22 17 0
-22 -17 0
22 46 0
-22 -46 0
94 130 0
-94 -130 0
94 140 0
-94 -140 0
94 16 0
-94 -16 0
57 47 0
-57 -47 0
57 9 0
-57 -9 0
57 26 0
-57 -26 0
5 38 0
-5 -38 0
5 46 0
-5 -46 0
5 98 0
-5 -98 0
96 85 0
-96 -85 0
96 129 0
-96 -129 0
96 3 0
-96 -3 0
51 87 0
-51 -87 0
51 107 0
-51 -107 0
51 99 0
-51 -99 0
123 137 0
-123 -137 0
123 110 0
-123 -110 0
123 140 0
-123 -140 0
77 82 0
-77 -82 0
77 73 0
-77 -73 0
49 107 0
-49 -107 0
49 72 0
-49 -72 0
109 34 0
-109 -34 0
109 102 0
-109 -102 0
59 132 0
-59 -132 0
59 80 0
-59 -80 0
59 31 0
-59 -31 0
40 114 0
-40 -114 0
40 85 0
-40 -85 0
62 140 0
-62 -140 0
62 87 0
-62 -87 0
93 117 0
-93 -117 0
93 25 0
-93 -25 0
39 116 0
-39 -116 0
39 82 0
-39 -82 0
39 21 0
-39 -21 0
86 17 0
-86 -17 0
86 103 0
-86 -103 0
69 95 0
-69 -95 0
69 102 0
-69 -102 0
69 42 0
-69 -42 0
113 110 0
-113 -110 0
113 105 0
-113 -105 0
111 3 0
-111 -3 0
111 92 0
-111 -92 0
111 29 0
-111 -29 0
81 21 0
-81 -21 0
81 43 0
-81 -43 0
81 100 0
-81 -100 0
63 19 0
-63 -19 0
63 130 0
-63 -130 0
63 95 0
-63 -95 0
104 1 0
-104 -1 0
104 19 0
-104 -19 0
104 129 0
-104 -129 0
61 92 0
-61 -92 0
61 27 0
-61 -27 0
61 137 0
-61 -137 0
88 36 0
-88 -36 0
88 85 0
-88 -85 0
84 42 0
-84 -42 0
84 71 0
-84 -71 0
84 44 0
-84 -44 0
35 46 0
-35 -46 0
35 107 0
-35 -107 0
35 80 0
-35 -80 0
70 16 0
-70 -16 0
70 17 0
-70 -17 0
70 90 0
-70 -90 0
108 105 0
-108 -105 0
108 100 0
-108 -100 0
108 24 0
-108 -24 0
54 136 0
-54 -136 0
54 128 0
-54 -128 0
54 18 0
-54 -18 0
50 9 0
-50 -9 0
50 106 0
-50 -106 0
50 121 0
-50 -121 0
79 73 0
-79 -73 0
79 6 0
-79 -6 0
79 136 0
-79 -136 0
55 100 0
-55 -100 0
55 15 0
-55 -15 0
33 133 0
-33 -133 0
33 31 0
-33 -31 0
33 119 0
-33 -119 0
2 75 0
-2 -75 0
2 133 0
-2 -133 0
2 65 0
-2 -65 0
66 23 0
-66 -23 0
66 110 0
-66 -110 0
66 65 0
-66 -65 0
135 27 0
-135 -27 0
135 41 0
-135 -41 0
135 21 0
-135 -21 0
115 26 0
-115 -26 0
115 27 0
-115 -27 0
101 106 0
-101 -106 0
101 97 0
-101 -97 0
101 36 0
-101 -36 0
139 91 0
-139 -91 0
139 134 0
-139 -134 0
139 19 0
-139 -19 0
138 71 0
-138 -71 0
138 98 0
-138 -98 0
138 116 0
-138 -116 0
60 65 0
-60 -65 0
60 52 0
-60 -52 0
78 15 0
-78 -15 0
78 91 0
-78 -91 0
78 64 0
-78 -64 0
4 43 0
-4 -43 0
4 52 0
-4 -52 0
4 38 0
-4 -38 0
124 41 0
-124 -41 0
124 112 0
-124 -112 0
74 6 0
-74 -6 0
74 23 0
-74 -23 0
74 34 0
-74 -34 0
68 74 0
-68 -74 0
68 114 0
-68 -114 0
5 41 0
-5 -41 0
49 52 0
-49 -52 0
8 21 0
-8 -21 0
51 138 0
-51 -138 0
78 18 0
-78 -18 0
67 109 0
-67 -109 0
105 133 0
-105 -133 0
70 55 0
-70 -55 0
94 69 0
-94 -69 0
4 87 0
-4 -87 0
101 95 0
-101 -95 0
13 109 0
-13 -109 0
108 107 0
-108 -107 0
25 107 0
-25 -107 0
116 95 0
-116 -95 0
60 38 0
-60 -38 0
128 23 0
-128 -23 0
58 85 0
-58 -85 0
52 137 0
-52 -137 0
57 74 0
-57 -74 0
44 26 0
-44 -26 0
118 108 0
-118 -108 0
21 105 0
-21 -105 0
37 133 0
-37 -133 0
56 136 0
-56 -136 0
106 71 0
-106 -71 0
30 127 0
-30 -127 0
7 91 0
-7 -91 0
121 91 0
-121 -91 0
92 27 0
-92 -27 0
29 82 0
-29 -82 0
80 43 0
-80 -43 0
28 85 0
-28 -85 0
99 24 0
-99 -24 0
101 117 0
-101 -117 0
11 109 0
-11 -109 0
139 15 0
-139 -15 0
75 41 0
-75 -41 0
77 101 0
-77 -101 0
39 74 0
-39 -74 0
74 129 0
-74 -129 0
32 84 0
-32 -84 0
37 7 0
-37 -7 0
118 68 0
-118 -68 0
105 6 0
-105 -6 0
107 43 0
-107 -43 0
63 80 0
-63 -80 0
121 9 0
-121 -9 0
98 116 0
-98 -116 0
22 137 0
-22 -137 0
17 75 0
-17 -75 0
5 93 0
-5 -93 0
48 9 0
-48 -9 0
116 27 0
-116 -27 0
25 29 0
-25 -29 0
38 17 0
-38 -17 0
60 83 0
-60 -83 0
39 73 0
-39 -73 0
83 116 0
-83 -116 0
12 133 0
-12 -133 0
10 48 0
-10 -48 0
37 104 0
-37 -104 0
104 112 0
-104 -112 0
57 64 0
-57 -64 0
95 91 0
-95 -91 0
21 6 0
-21 -6 0
72 103 0
-72 -103 0
121 21 0
-121 -21 0
120 39 0
-120 -39 0
122 130 0
-122 -130 0
108 17 0
-108 -17 0
85 110 0
-85 -110 0
67 90 0
-67 -90 0
67 82 0
-67 -82 0
79 24 0
-79 -24 0
121 27 0
-121 -27 0
24 116 0
-24 -116 0
51 54 0
-51 -54 0
120 117 0
-120 -117 0
122 6 0
-122 -6 0
125 65 0
-125 -65 0
131 79 0
-131 -79 0
76 55 0
-76 -55 0
35 103 0
-35 -103 0
135 17 0
-135 -17 0
89 26 0
-89 -26 0
89 74 0
-89 -74 0
62 88 0
-62 -88 0
111 138 0
-111 -138 0
31 92 0
-31 -92 0
37 40 0
-37 -40 0
115 16 0
-115 -16 0
72 132 0
-72 -132 0
113 65 0
-113 -65 0
117 42 0
-117 -42 0
132 41 0
-132 -41 0
28 42 0
-28 -42 0
118 87 0
-118 -87 0
138 26 0
-138 -26 0
30 105 0
-30 -105 0
53 23 0
-53 -23 0
111 6 0
-111 -6 0
127 35 0
-127 -35 0
109 16 0
-109 -16 0
55 78 0
-55 -78 0
69 140 0
-69 -140 0
35 38 0
-35 -38 0
77 29 0
-77 -29 0
55 137 0
-55 -137 0
25 26 0
-25 -26 0
40 75 0
-40 -75 0
69 50 0
-69 -50 0
123 52 0
-123 -52 0
127 85 0
-127 -85 0
8 57 0
-8 -57 0
111 80 0
-111 -80 0
49 74 0
-49 -74 0
24 90 0
-24 -90 0
118 126 0
-118 -126 0
87 17 0
-87 -17 0
78 26 0
-78 -26 0
61 112 0
-61 -112 0
58 119 0
-58 -119 0
28 108 0
-28 -108 0
89 102 0
-89 -102 0
108 95 0
-108 -95 0
82 105 0
-82 -105 0
109 60 0
-109 -60 0
45 27 0
-45 -27 0
125 85 0
-125 -85 0
88 65 0
-88 -65 0
14 133 0
-14 -133 0
4 85 0
-4 -85 0
123 41 0
-123 -41 0
97 130 0
-97 -130 0
124 117 0
-124 -117 0
102 90 0
-102 -90 0
52 36 0
-52 -36 0
139 137 0
-139 -137 0
134 41 0
-134 -41 0
84 78 0
-84 -78 0
124 95 0
-124 -95 0
45 78 0
-45 -78 0
68 50 0
-68 -50 0
7 140 0
-7 -140 0
56 133 0
-56 -133 0
13 52 0
-13 -52 0
39 1 0
-39 -1 0
49 50 0
-49 -50 0
118 11 0
-118 -11 0
20 135 0
-20 -135 0
125 55 0
-125 -55 0
108 83 0
-108 -83 0
39 6 0
-39 -6 0
11 106 0
-11 -106 0
96 90 0
-96 -90 0
86 44 0
-86 -44 0
93 55 0
-93 -55 0
104 18 0
-104 -18 0
20 128 0
-20 -128 0
63 101 0
-63 -101 0
118 20 0
-118 -20 0
85 87 0
-85 -87 0
49 124 0
-49 -124 0
74 64 0
-74 -64 0
35 71 0
-35 -71 0
136 6 0
-136 -6 0
60 91 0
-60 -91 0
76 99 0
-76 -99 0
37 60 0
-37 -60 0
28 79 0
-28 -79 0
127 26 0
-127 -26 0
36 91 0
-36 -91 0
77 100 0
-77 -100 0
83 27 0
-83 -27 0
118 34 0
-118 -34 0
39 47 0
-39 -47 0
84 105 0
-84 -105 0
53 71 0
-53 -71 0
70 65 0
-70 -65 0
86 2 0
-86 -2 0
49 26 0
-49 -26 0
129 114 0
-129 -114 0
104 26 0
-104 -26 0
89 85 0
-89 -85 0
90 116 0
-90 -116 0
45 59 0
-45 -59 0
122 17 0
-122 -17 0
68 21 0
-68 -21 0
32 75 0
-32 -75 0
83 21 0
-83 -21 0
131 82 0
-131 -82 0
30 123 0
-30 -123 0
130 42 0
-130 -42 0
40 82 0
-40 -82 0
10 43 0
-10 -43 0
20 33 0
-20 -33 0
54 80 0
-54 -80 0
89 51 0
-89 -51 0
7 59 0
-7 -59 0
8 95 0
-8 -95 0
78 48 0
-78 -48 0
4 99 0
-4 -99 0
25 122 0
-25 -122 0
24 106 0
-24 -106 0
86 29 0
-86 -29 0
94 87 0
-94 -87 0
12 72 0
-12 -72 0
37 117 0
-37 -117 0
103 106 0
-103 -106 0
61 128 0
-61 -128 0
96 27 0
-96 -27 0
37 98 0
-37 -98 0
86 138 0
-86 -138 0
28 73 0
-28 -73 0
13 103 0
-13 -103 0
82 114 0
-82 -114 0
17 43 0
-17 -43 0
51 75 0
-51 -75 0
4 74 0
-4 -74 0
53 2 0
-53 -2 0
8 139 0
-8 -139 0
103 87 0
-103 -87 0
113 97 0
-113 -97 0
39 100 0
-39 -100 0
96 99 0
-96 -99 0
22 132 0
-22 -132 0
124 52 0
-124 -52 0
124 75 0
-124 -75 0
93 91 0
-93 -91 0
121 90 0
-121 -90 0
39 108 0
-39 -108 0
127 62 0
-127 -62 0
12 101 0
-12 -101 0
46 9 0
-46 -9 0
84 70 0
-84 -70 0
2 23 0
-2 -23 0
1 133 0
-1 -133 0
4 83 0
-4 -83 0
88 71 0
-88 -71 0
125 1 0
-125 -1 0
120 137 0
-120 -137 0
5 73 0
-5 -73 0
68 63 0
-68 -63 0
58 117 0
-58 -117 0
40 87 0
-40 -87 0
45 64 0
-45 -64 0
21 23 0
-21 -23 0
68 54 0
-68 -54 0
5 102 0
-5 -102 0
62 42 0
-62 -42 0
94 104 0
-94 -104 0
68 42 0
-68 -42 0
44 133 0
-44 -133 0
122 105 0
-122 -105 0
140 110 0
-140 -110 0
77 33 0
-77 -33 0
32 86 0
-32 -86 0
8 86 0
-8 -86 0
55 136 0
-55 -136 0
68 8 0
-68 -8 0
5 23 0
-5 -23 0
40 4 0
-40 -4 0
56 137 0
-56 -137 0
104 34 0
-104 -34 0
7 113 0
-7 -113 0
64 137 0
-64 -137 0
135 48 0
-135 -48 0
118 58 0
-118 -58 0
118 23 0
-118 -23 0
7 61 0
-7 -61 0
39 132 0
-39 -132 0
45 26 0
-45 -26 0
77 2 0
-77 -2 0
72 19 0
-72 -19 0
108 112 0
-108 -112 0
127 18 0
-127 -18 0
62 75 0
-62 -75 0
62 85 0
-62 -85 0
53 75 0
-53 -75 0
69 129 0
-69 -129 0
37 39 0
-37 -39 0
14 116 0
-14 -116 0
30 39 0
-30 -39 0
67 123 0
-67 -123 0
63 129 0
-63 -129 0
109 17 0
-109 -17 0
135 129 0
-135 -129 0
56 12 0
-56 -12 0
22 59 0
-22 -59 0
66 90 0
-66 -90 0
138 128 0
-138 -128 0
126 114 0
-126 -114 0
90 136 0
-90 -136 0
25 128 0
-25 -128 0
62 15 0
-62 -15 0
115 132 0
-115 -132 0
86 97 0
-86 -97 0
135 91 0
-135 -91 0
12 26 0
-12 -26 0
127 104 0
-127 -104 0
109 139 0
-109 -139 0
119 19 0
-119 -19 0
116 42 0
-116 -42 0
120 59 0
-120 -59 0
77 21 0
-77 -21 0
68 140 0
-68 -140 0
63 82 0
-63 -82 0
118 10 0
-118 -10 0
62 99 0
-62 -99 0
113 23 0
-113 -23 0
57 119 0
-57 -119 0
20 124 0
-20 -124 0
109 64 0
-109 -64 0
63 36 0
-63 -36 0
8 36 0
-8 -36 0
58 3 0
-58 -3 0
79 95 0
-79 -95 0
104 102 0
-104 -102 0
5 122 0
-5 -122 0
73 75 0
-73 -75 0
10 129 0
-10 -129 0
35 47 0
-35 -47 0
139 6 0
-139 -6 0
56 129 0
-56 -129 0
69 81 0
-69 -81 0
32 78 0
-32 -78 0
110 100 0
-110 -100 0
123 73 0
-123 -73 0
9 100 0
-9 -100 0
67 122 0
-67 -122 0
1 43 0
-1 -43 0
125 25 0
-125 -25 0
103 85 0
-103 -85 0
66 138 0
-66 -138 0
33 129 0
-33 -129 0
90 29 0
-90 -29 0
89 44 0
-89 -44 0
120 4 0
-120 -4 0
135 137 0
-135 -137 0
121 130 0
-121 -130 0
2 27 0
-2 -27 0
74 25 0
-74 -25 0
62 27 0
-62 -27 0
101 128 0
-101 -128 0
28 112 0
-28 -112 0
31 129 0
-31 -129 0
32 63 0
-32 -63 0
120 133 0
-120 -133 0
118 53 0
-118 -53 0
55 139 0
-55 -139 0
30 70 0
-30 -70 0
56 47 0
-56 -47 0
70 106 0
-70 -106 0
56 122 0
-56 -122 0
59 135 0
-59 -135 0
8 100 0
-8 -100 0
76 46 0
-76 -46 0
115 52 0
-115 -52 0
67 10 0
-67 -10 0
131 3 0
-131 -3 0
88 106 0
-88 -106 0
101 6 0
-101 -6 0
54 137 0
-54 -137 0
135 52 0
-135 -52 0
52 44 0
-52 -44 0
37 70 0
-37 -70 0
63 128 0
-63 -128 0
115 72 0
-115 -72 0
38 36 0
-38 -36 0
98 73 0
-98 -73 0
62 4 0
-62 -4 0
101 1 0
-101 -1 0
51 86 0
-51 -86 0
35 64 0
-35 -64 0
51 106 0
-51 -106 0
29 16 0
-29 -16 0
78 87 0
-78 -87 0
82 16 0
-82 -16 0
68 17 0
-68 -17 0
124 42 0
-124 -42 0
59 90 0
-59 -90 0
67 1 0
-67 -1 0
45 87 0
-45 -87 0
40 69 0
-40 -69 0
94 18 0
-94 -18 0
89 18 0
-89 -18 0
138 92 0
-138 -92 0
44 3 0
-44 -3 0
119 29 0
-119 -29 0
83 29 0
-83 -29 0
131 72 0
-131 -72 0
61 50 0
-61 -50 0
68 51 0
-68 -51 0
24 136 0
-24 -136 0
8 49 0
-8 -49 0
69 121 0
-69 -121 0
107 116 0
-107 -116 0
28 113 0
-28 -113 0
40 1 0
-40 -1 0
89 101 0
-89 -101 0
68 94 0
-68 -94 0
79 41 0
-79 -41 0
102 18 0
-102 -18 0
56 77 0
-56 -77 0
89 126 0
-89 -126 0
76 32 0
-76 -32 0
127 97 0
-127 -97 0
56 138 0
-56 -138 0
40 44 0
-40 -44 0
129 130 0
-129 -130 0
63 121 0
-63 -121 0
83 18 0
-83 -18 0
67 25 0
-67 -25 0
81 15 0
-81 -15 0
60 126 0
-60 -126 0
67 104 0
-67 -104 0
57 15 0
-57 -15 0
36 27 0
-36 -27 0
84 50 0
-84 -50 0
57 138 0
-57 -138 0
110 23 0
-110 -23 0
98 110 0
-98 -110 0
56 93 0
-56 -93 0
101 60 0
-101 -60 0
37 111 0
-37 -111 0
124 72 0
-124 -72 0
96 64 0
-96 -64 0
65 15 0
-65 -15 0
25 71 0
-25 -71 0
30 66 0
-30 -66 0
55 73 0
-55 -73 0
113 64 0
-113 -64 0
2 71 0
-2 -71 0
101 130 0
-101 -130 0
96 102 0
-96 -102 0
94 98 0
-94 -98 0
20 36 0
-20 -36 0
51 33 0
-51 -33 0
